\* Problem: Unknown *\

Maximize
 obj: + xp_0_0 + xp_0_1 + xp_0_2 + xp_0_3 + xp_0_4 + xp_0_5 + xp_0_6
 + xp_0_7 + xp_1_0 + xp_1_1 + xp_2_0 + xp_2_1 + xp_2_2 + xp_2_3 + xp_2_4
 + xp_3_0 + xp_3_1 + xp_3_2 + xp_3_3 + xp_4_0 + xp_4_1 + xp_5_0 + xp_5_1
 + xp_5_2 + xp_6_0 + xp_6_1 + xp_6_2 + xp_6_3 + xp_7_0 + xp_7_1 + xp_8_0
 + xp_8_1 + xp_9_0 + xp_10_0 + xp_11_0 + xp_11_1 + xp_11_2 + xp_11_3
 + xp_11_4 + xp_12_0 + xp_13_0 + xp_13_1 + xp_14_0 + xp_14_1 + xp_15_0
 + xp_16_0 + xp_16_1 + xp_17_0 + xp_17_1 + xp_17_2 + xp_17_3 + xp_17_4
 + xp_17_5 + xp_18_0 + xp_18_1 + xp_18_2 + xp_18_3 + xp_18_4 + xp_19_0
 + xp_19_1 + xp_19_2 + xp_19_3 + xp_19_4 + xp_19_5 + xp_20_0 + xp_20_1
 + xp_20_2 + xp_20_3 + xp_20_4 + xp_21_0 + xp_21_1 + xp_21_2 + xp_21_3
 + xp_22_0 + xp_22_1 + xp_22_2 + xp_22_3 + xp_22_4 + xp_22_5 + xp_22_6
 + xp_22_7 + xp_23_0 + xp_23_1 + xp_23_2 + xp_23_3 + xp_23_4 + xp_23_5

Subject To
 r_1: 0 xp_0_0 <= 25.8070099524016
 r_2: + xp_23_3 + xp_22_3 + xp_18_1 + xp_6_3 + xp_5_2 + xp_2_2
 <= 25.5089820359281
 r_3: + xp_23_5 + xp_22_6 + xp_21_1 + xp_18_4 + xp_17_4 + xp_6_2
 <= 26.2815479528884
 r_4: + xp_18_2 + xp_15_0 <= 26.9620253164557
 r_5: + xp_18_0 <= 25.2764109985528
 r_6: + xp_19_5 + xp_18_3 <= 26.0136785539814
 r_7: + xp_20_4 + xp_20_3 <= 25.8070099524016
 r_8: + xp_22_2 + xp_11_3 + xp_6_1 + xp_5_1 + xp_3_3 + xp_3_2 + xp_2_1
 <= 25.5089820359281
 r_9: + xp_23_4 + xp_11_1 + xp_3_1 <= 26.2815479528884
 r_10: + xp_17_2 + xp_3_0 <= 26.9620253164557
 r_11: + xp_18_3 + xp_11_2 <= 25.2764109985528
 r_12: + xp_11_0 <= 26.0136785539814
 r_13: + xp_11_4 <= 26.9620253164557
 r_14: + xp_21_2 + xp_14_0 + xp_0_5 + xp_0_1 <= 25.5089820359281
 r_15: + xp_21_0 + xp_19_4 <= 26.2815479528884
 r_16: + xp_22_1 + xp_21_3 + xp_0_7 + xp_0_3 + xp_0_2
 <= 26.5090230242688
 r_17: + xp_0_0 <= 25.2764109985528
 r_18: + xp_21_1 + xp_19_5 + xp_4_0 <= 25.8070099524016
 r_19: + xp_19_0 <= 25.8070099524016
 r_20: + xp_19_3 + xp_19_2 + xp_19_1 + xp_14_1 + xp_4_1 + xp_0_6
 + xp_0_4 <= 26.9620253164557
 r_21: + xp_20_1 <= 25.5089820359281
 r_22: + xp_21_2 + xp_7_1 <= 26.2815479528884
 r_23: + xp_22_5 + xp_22_3 + xp_22_2 + xp_3_2 <= 26.5090230242688
 r_24: + xp_23_3 + xp_23_2 + xp_6_3 + xp_6_1 + xp_3_3 + xp_0_5 + xp_0_4
 <= 25.8070099524016
 r_25: 0 xp_0_0 <= 26.9620253164557
 r_26: + xp_18_1 + xp_0_6 + xp_0_1 <= 25.2764109985528
 r_27: + xp_11_4 + xp_11_3 + xp_4_1 <= 25.5089820359281
 r_28: + xp_20_4 + xp_19_1 <= 25.5089820359281
 r_29: + xp_20_2 <= 26.2815479528884
 r_30: + xp_2_0 <= 26.2815479528884
 r_31: + xp_23_5 + xp_23_4 + xp_22_6 + xp_18_4 + xp_17_4 + xp_6_2
 + xp_3_1 + xp_2_4 <= 25.8070099524016
 r_32: + xp_2_3 <= 26.9620253164557
 r_33: + xp_11_1 + xp_2_2 <= 26.2815479528884
 r_34: + xp_19_4 + xp_19_3 + xp_2_1 <= 26.2815479528884
 r_35: 0 xp_0_0 <= 26.5090230242688
 r_36: + xp_9_0 <= 26.5090230242688
 r_37: + xp_21_3 + xp_13_1 + xp_8_1 + xp_0_3 <= 25.8070099524016
 r_38: + xp_1_1 <= 27.941473259334
 r_39: + xp_17_1 + xp_3_2 + xp_0_7 <= 26.9620253164557
 r_40: + xp_0_2 <= 25.2764109985528
 r_41: + xp_12_0 + xp_2_4 <= 25.8070099524016
 r_42: + xp_21_3 <= 25.8070099524016
 r_43: + xp_22_6 + xp_22_4 + xp_16_0 <= 25.8070099524016
 r_44: + xp_23_5 + xp_23_4 + xp_23_3 + xp_23_2 + xp_23_1 + xp_16_1
 <= 27.941473259334
 r_45: + xp_17_4 + xp_17_3 + xp_3_3 + xp_3_1 <= 26.9620253164557
 r_46: + xp_18_4 + xp_0_5 + xp_0_4 + xp_0_3 <= 25.2764109985528
 r_47: + xp_22_7 + xp_16_1 + xp_13_1 <= 27.941473259334
 r_48: + xp_13_0 <= 27.941473259334
 r_49: + xp_17_5 <= 26.9620253164557
 r_50: 0 xp_0_0 <= 25.2764109985528
 r_51: + xp_8_1 + xp_1_1 <= 26.9620253164557
 r_52: + xp_8_0 <= 26.9620253164557
 r_53: + xp_1_0 <= 26.9620253164557
 r_54: + xp_18_2 + xp_0_7 <= 25.2764109985528
 r_55: 0 xp_0_0 <= 26.9620253164557
 r_56: 0 xp_0_0 <= 26.9620253164557
 r_57: + xp_22_1 <= 25.2764109985528
 r_58: + xp_23_2 + xp_22_5 + xp_5_0 <= 25.2764109985528
 r_59: + xp_22_0 + xp_17_1 <= 25.2764109985528
 r_60: + xp_23_1 + xp_22_4 + xp_17_3 + xp_6_0 <= 25.2764109985528
 r_61: + xp_23_0 + xp_22_7 + xp_17_5 <= 25.2764109985528
 r_62: + xp_17_0 <= 25.2764109985528
 r_63: + xp_23_5 + xp_23_3 + xp_22_6 + xp_22_3 + xp_17_4 + xp_11_2
 + xp_6_3 + xp_6_2 + xp_5_2 <= 25.2764109985528
 r_64: + xp_23_4 + xp_22_2 + xp_17_2 + xp_6_1 + xp_5_1
 <= 25.2764109985528
 r_65: + xp_20_4 + xp_20_1 + xp_19_1 + xp_14_1 + xp_11_4 + xp_7_1
 + xp_4_1 + xp_2_3 + xp_0_6 + xp_0_4 <= 26.9620253164557
 r_66: + xp_20_2 + xp_19_3 + xp_7_0 <= 26.9620253164557
 r_67: + xp_20_3 + xp_19_2 + xp_10_0 <= 26.9620253164557
 r_68: + xp_20_0 <= 26.9620253164557

Bounds
 0 <= xp_0_0 <= 27.7894827666788
 0 <= xp_0_1 <= 8.6963361890758
 0 <= xp_0_2 <= 12.4372413743515
 0 <= xp_0_3 <= 2.69635775993788
 0 <= xp_0_4 <= 1.65181033460002
 0 <= xp_0_5 <= 2.69635775993788
 0 <= xp_0_6 <= 2.69635775993788
 0 <= xp_0_7 <= 3.52226292723789
 0 <= xp_1_0 <= 20.1052568190888
 0 <= xp_1_1 <= 14.712541299213
 0 <= xp_2_0 <= 23.0445402350505
 0 <= xp_2_1 <= 2.21051723332123
 0 <= xp_2_2 <= 6.86639367542324
 0 <= xp_2_3 <= 0.736839077773743
 0 <= xp_2_4 <= 1.47367815554749
 0 <= xp_3_0 <= 23.5465589082268
 0 <= xp_3_1 <= 6.87448814141858
 0 <= xp_3_2 <= 0.98784841436188
 0 <= xp_3_3 <= 0.49392420718094
 0 <= xp_4_0 <= 23.3198275769091
 0 <= xp_4_1 <= 2.5910919529899
 0 <= xp_5_0 <= 15.5465517179394
 0 <= xp_5_1 <= 7.77327585896971
 0 <= xp_5_2 <= 2.5910919529899
 0 <= xp_6_0 <= 16.3238793038364
 0 <= xp_6_1 <= 2.33198275769091
 0 <= xp_6_2 <= 2.33198275769091
 0 <= xp_6_3 <= 2.33198275769091
 0 <= xp_7_0 <= 20.1133512850841
 0 <= xp_7_1 <= 2.23481680945379
 0 <= xp_8_0 <= 18.0728663721046
 0 <= xp_8_1 <= 2.00809626356717
 0 <= xp_9_0 <= 18.6234734121149
 0 <= xp_10_0 <= 18.6234734121149
 0 <= xp_11_0 <= 25.7732758589697
 0 <= xp_11_1 <= 15.4898634923945
 0 <= xp_11_2 <= 8.08907327981363
 0 <= xp_11_3 <= 9.09311062616618
 0 <= xp_11_4 <= 0.502018673176274
 0 <= xp_12_0 <= 17.4898706826818
 0 <= xp_13_0 <= 13.603232753197
 0 <= xp_13_1 <= 3.40080818829925
 0 <= xp_14_0 <= 11.3360272943308
 0 <= xp_14_1 <= 4.85829741185607
 0 <= xp_15_0 <= 16.032381459125
 0 <= xp_16_0 <= 12.307686776702
 0 <= xp_16_1 <= 3.07692169417551
 0 <= xp_17_0 <= 27.878548856205
 0 <= xp_17_1 <= 9.91901579346619
 0 <= xp_17_2 <= 1.80566450838208
 0 <= xp_17_3 <= 1.80566450838208
 0 <= xp_17_4 <= 1.80566450838208
 0 <= xp_17_5 <= 1.80566450838208
 0 <= xp_18_0 <= 22.6234770072586
 0 <= xp_18_1 <= 3.22266522381567
 0 <= xp_18_2 <= 4.30769037184571
 0 <= xp_18_3 <= 11.3117385036293
 0 <= xp_18_4 <= 1.61133261190784
 0 <= xp_19_0 <= 28.526327237168
 0 <= xp_19_1 <= 1.56274963778927
 0 <= xp_19_2 <= 4.68824891336782
 0 <= xp_19_3 <= 3.12549927557855
 0 <= xp_19_4 <= 3.12549927557855
 0 <= xp_19_5 <= 1.56274963778927
 0 <= xp_20_0 <= 27.2307758679576
 0 <= xp_20_1 <= 7.1416918027129
 0 <= xp_20_2 <= 2.96355602851668
 0 <= xp_20_3 <= 2.96355602851668
 0 <= xp_20_4 <= 1.48177801425834
 0 <= xp_21_0 <= 26.8745007244215
 0 <= xp_21_1 <= 2.60728088498057
 0 <= xp_21_2 <= 3.91092132747085
 0 <= xp_21_3 <= 6.60727908740873
 0 <= xp_22_0 <= 16.9068803859746
 0 <= xp_22_1 <= 2.69635775993788
 0 <= xp_22_2 <= 2.28339439085683
 0 <= xp_22_3 <= 3.83805495536629
 0 <= xp_22_4 <= 1.14169719542842
 0 <= xp_22_5 <= 9.23077047524204
 0 <= xp_22_6 <= 1.14169719542842
 0 <= xp_22_7 <= 1.14169719542842
 0 <= xp_23_0 <= 24.9959536657883
 0 <= xp_23_1 <= 8.817807106161
 0 <= xp_23_2 <= 1.14169719542842
 0 <= xp_23_3 <= 1.14169719542842
 0 <= xp_23_4 <= 1.14169719542842
 0 <= xp_23_5 <= 1.14169719542842

End
